



7 7
2 18 0 12 1 8 3 2 5 12 6 1 4 17
4 12 5 9 6 9 0 15 2 13 1 5 3 10
2 19 5 6 0 10 6 11 1 18 3 10 4 1
6 14 1 13 5 8 4 5 0 11 2 9 3 13
4 18 3 1 0 8 2 1 5 2 6 16 1 12
4 10 1 18 2 8 0 14 3 5 6 10 5 14
1 14 0 1 5 16 4 5 3 11 2 7 6 13
